# Solution for model GasLib-40
# Objective value = 3.8383392172232568e+01
loadshed[innode_1] 0
loadshed[innode_2] 0
loadshed[innode_3] 0
loadshed[innode_4] 0
loadshed[innode_5] 0
loadshed[innode_6] 0
loadshed[innode_7] 0
loadshed[innode_8] 0
loadshed[source_1] -2.0280944351129393e-01
loadshed[source_2] 1.5762600104673541e-01
loadshed[source_3] 2.8797757700444770e-01
loadshed[sink_1] 0
loadshed[sink_2] 0
loadshed[sink_3] 0
loadshed[sink_4] 0
loadshed[sink_5] 0
loadshed[sink_6] 0
loadshed[sink_7] 0
loadshed[sink_8] 0
loadshed[sink_9] 0
loadshed[sink_10] 0
loadshed[sink_11] 0
loadshed[sink_12] 1
loadshed[sink_13] 0
loadshed[sink_14] 0
loadshed[sink_15] 0
loadshed[sink_16] 0
loadshed[sink_17] 0
loadshed[sink_18] 0
loadshed[sink_19] 0
loadshed[sink_20] 0
loadshed[sink_21] 1
loadshed[sink_22] 0
loadshed[sink_23] 0
loadshed[sink_24] 3.4700996721931610e-01
loadshed[sink_25] 0
loadshed[sink_26] 0
loadshed[sink_27] 0
loadshed[sink_28] 0
loadshed[sink_29] 0
flow[source_1,sink_3] 1.9015247903843476e+02
flow[innode_1,sink_16] 1.6354166666666970e+01
flow[innode_6,sink_13] 1.9153440312942607e+00
flow[sink_13,sink_14] -1.4438822635372407e+01
flow[sink_14,sink_10] -3.0792989302039075e+01
flow[sink_25,sink_26] 1.3008143556470679e+02
flow[sink_26,sink_9] 3.2708333333334551e+01
flow[sink_9,sink_18] 1.6354166666667879e+01
flow[sink_26,sink_4] 8.1018935564705572e+01
flow[sink_4,sink_20] -1.5569707990306089e+01
flow[sink_18,sink_6] 0
flow[sink_25,innode_8] -1.5744414570509841e+02
flow[sink_6,sink_7] -4.9062500000000313e+01
flow[sink_6,sink_22] 3.2708333333333641e+01
flow[sink_7,sink_24] 1.0679107827767433e+01
flow[sink_22,sink_1] 1.6354166666666970e+01
flow[sink_24,sink_21] 0
flow[sink_21,sink_12] 0
flow[sink_7,sink_5] -7.6095774494434409e+01
flow[sink_5,sink_17] -9.2449941161101080e+01
flow[sink_17,sink_4] -8.0234476888344986e+01
flow[sink_17,sink_8] -2.8569630939422755e+01
flow[sink_3,sink_23] 16.3541666666697
flow[sink_8,sink_20] -4.4923797606089423e+01
flow[sink_25,sink_20] 7.6847672263062179e+01
flow[sink_25,sink_15] -67.7544728206312
flow[sink_15,sink_29] 0
flow[sink_29,sink_28] 1.6354166666667879e+01
flow[sink_29,sink_2] 1.0046280615396454e+02
flow[sink_2,sink_15] 8.4108639487297864e+01
flow[sink_29,innode_7] -1.3317113948729909e+02
flow[innode_4,sink_19] 0
flow[sink_19,innode_3] 3.8969141709558123e+01
flow[innode_4,innode_5] 1.1256382263537324e+02
flow[sink_27,innode_5] -1.1256382263537324e+02
flow[sink_27,sink_19] 9.6209655968706571e+01
flow[sink_10,sink_11] 3.2708333333333641e+01
flow[sink_10,innode_2] -4.0886347592481258e+01
flow[sink_10,innode_3] -3.8969141709558123e+01
flow[innode_6,sink_25] -1.9153440312942607e+00
flow[sink_11,innode_1] 1.6354166666666970e+01
flow[sink_19,innode_2] 4.0886347592481258e+01
flow[source_3,innode_4] 1.1256382263537324e+02
flow[source_2,innode_7] 1.3317113948729909e+02
flow[sink_3,innode_8] 1.5744414570509841e+02
pressure[innode_1] 7.5623380451713714e+01
pressure[innode_2] 7.7936094095726020e+01
pressure[innode_3] 77.8498013441868
pressure[innode_4] 81.01325
pressure[innode_5] 8.0935822667282636e+01
pressure[innode_6] 7.4303336071722626e+01
pressure[innode_7] 81.01325
pressure[innode_8] 8.0377642903454444e+01
pressure[source_1] 81.01325
pressure[source_2] 81.01325
pressure[source_3] 81.01325
pressure[sink_1] 1.0465443962144258e+01
pressure[sink_2] 7.4906607457020854e+01
pressure[sink_3] 8.0377642903454444e+01
pressure[sink_4] 5.4840819803428346e+01
pressure[sink_5] 4.4887670292631505e+01
pressure[sink_6] 1.2566521572531631e+01
pressure[sink_7] 1.3240032750231762e+01
pressure[sink_8] 5.2852529059185727e+01
pressure[sink_9] 6.3184098789606416e+01
pressure[sink_10] 7.5775081759317260e+01
pressure[sink_11] 7.5623380451713714e+01
pressure[sink_12] 1.01325
pressure[sink_13] 7.4292777100161828e+01
pressure[sink_14] 7.4318616603183557e+01
pressure[sink_15] 7.4632011286340386e+01
pressure[sink_16] 7.4601730616896035e+01
pressure[sink_17] 5.1774522661765275e+01
pressure[sink_18] 6.2592356295806709e+01
pressure[sink_19] 7.7936094095726020e+01
pressure[sink_20] 5.5983085976788210e+01
pressure[sink_21] 1.01325
pressure[sink_22] 1.1529213104499268e+01
pressure[sink_23] 8.0212924891794657e+01
pressure[sink_24] 1.01325
pressure[sink_25] 7.4303336071722626e+01
pressure[sink_26] 6.5141776957491018e+01
pressure[sink_27] 8.0001750934988749e+01
pressure[sink_28] 7.7156161442437138e+01
pressure[sink_29] 7.7451443716054314e+01
interdiction[source_1,sink_3] 0
interdiction[innode_1,sink_16] 0
interdiction[innode_6,sink_13] 0
interdiction[sink_13,sink_14] 0
interdiction[sink_14,sink_10] 0
interdiction[sink_25,sink_26] 0
interdiction[sink_26,sink_9] 0
interdiction[sink_9,sink_18] 0
interdiction[sink_26,sink_4] 0
interdiction[sink_4,sink_20] 0
interdiction[sink_18,sink_6] 1
interdiction[sink_25,innode_8] 0
interdiction[sink_6,sink_7] 0
interdiction[sink_6,sink_22] 0
interdiction[sink_7,sink_24] 0
interdiction[sink_22,sink_1] 0
interdiction[sink_24,sink_21] 0
interdiction[sink_21,sink_12] 0
interdiction[sink_7,sink_5] 0
interdiction[sink_5,sink_17] 0
interdiction[sink_17,sink_4] 0
interdiction[sink_17,sink_8] 0
interdiction[sink_3,sink_23] 0
interdiction[sink_8,sink_20] 0
interdiction[sink_25,sink_20] 0
interdiction[sink_25,sink_15] 0
interdiction[sink_15,sink_29] 1
interdiction[sink_29,sink_28] 0
interdiction[sink_29,sink_2] 0
interdiction[sink_2,sink_15] 0
interdiction[sink_29,innode_7] 0
interdiction[innode_4,sink_19] 1
interdiction[sink_19,innode_3] 0
interdiction[innode_4,innode_5] 0
interdiction[sink_27,innode_5] 0
interdiction[sink_27,sink_19] 0
interdiction[sink_10,sink_11] 0
interdiction[sink_10,innode_2] 0
interdiction[sink_10,innode_3] 0
interdiction[innode_6,sink_25] 0
interdiction[sink_11,innode_1] 0
interdiction[sink_19,innode_2] 0
interdiction[source_3,innode_4] 0
interdiction[source_2,innode_7] 0
interdiction[sink_3,innode_8] 0
WCcheckFlow[source_1,sink_3] 39
WCcheckFlow[innode_1,sink_16] 1
WCcheckFlow[innode_6,sink_13] 13
WCcheckFlow[sink_13,sink_14] 12
WCcheckFlow[sink_14,sink_10] 11
WCcheckFlow[sink_25,sink_26] 15
WCcheckFlow[sink_26,sink_9] 2
WCcheckFlow[sink_9,sink_18] 1
WCcheckFlow[sink_26,sink_4] 12
WCcheckFlow[sink_4,sink_20] 1
WCcheckFlow[sink_18,sink_6] 0
WCcheckFlow[sink_25,innode_8] -36
WCcheckFlow[sink_6,sink_7] -3
WCcheckFlow[sink_6,sink_22] 2
WCcheckFlow[sink_7,sink_24] 3
WCcheckFlow[sink_22,sink_1] 1
WCcheckFlow[sink_24,sink_21] 2
WCcheckFlow[sink_21,sink_12] 1
WCcheckFlow[sink_7,sink_5] -7
WCcheckFlow[sink_5,sink_17] -8
WCcheckFlow[sink_17,sink_4] -10
WCcheckFlow[sink_17,sink_8] 1
WCcheckFlow[sink_3,sink_23] 1
WCcheckFlow[sink_8,sink_20] 0
WCcheckFlow[sink_25,sink_20] 0
WCcheckFlow[sink_25,sink_15] 6
WCcheckFlow[sink_15,sink_29] 0
WCcheckFlow[sink_29,sink_28] 1
WCcheckFlow[sink_29,sink_2] -4
WCcheckFlow[sink_2,sink_15] -5
WCcheckFlow[sink_29,innode_7] 2
WCcheckFlow[innode_4,sink_19] 0
WCcheckFlow[sink_19,innode_3] -5
WCcheckFlow[innode_4,innode_5] -2
WCcheckFlow[sink_27,innode_5] 3
WCcheckFlow[sink_27,sink_19] -4
WCcheckFlow[sink_10,sink_11] 3
WCcheckFlow[sink_10,innode_2] 1
WCcheckFlow[sink_10,innode_3] 6
WCcheckFlow[innode_6,sink_25] -14
WCcheckFlow[sink_11,innode_1] 2
WCcheckFlow[sink_19,innode_2] 0
WCcheckFlow[source_3,innode_4] -1
WCcheckFlow[source_2,innode_7] -1
WCcheckFlow[sink_3,innode_8] 37
